NAME: svctime-example
TYPE: CVRP
DIMENSION: 51
CAPACITY: 160
EDGE_WEIGHT_FORMAT: FUNCTION
EDGE_WEIGHT_TYPE: EXACT_2D
NODE_COORD_TYPE: TWOD_COORDS
NODE_COORD_SECTION
1 37.00000 52.00000
2 49.00000 49.00000
3 52.00000 64.00000
4 20.00000 26.00000
5 40.00000 30.00000
6 21.00000 47.00000
7 17.00000 63.00000
8 31.00000 62.00000
9 52.00000 33.00000
10 51.00000 21.00000
11 42.00000 41.00000
12 31.00000 32.00000
13 5.00000 25.00000
14 12.00000 42.00000
15 36.00000 16.00000
16 52.00000 41.00000
17 27.00000 23.00000
18 17.00000 33.00000
19 13.00000 13.00000
20 57.00000 58.00000
21 62.00000 42.00000
22 42.00000 57.00000
23 16.00000 57.00000
24 8.00000 52.00000
25 7.00000 38.00000
26 27.00000 68.00000
27 30.00000 48.00000
28 43.00000 67.00000
29 58.00000 48.00000
30 58.00000 27.00000
31 37.00000 69.00000
32 38.00000 46.00000
33 46.00000 10.00000
34 61.00000 33.00000
35 62.00000 63.00000
36 63.00000 69.00000
37 32.00000 22.00000
38 45.00000 35.00000
39 59.00000 15.00000
40 5.00000 6.00000
41 10.00000 17.00000
42 21.00000 10.00000
43 5.00000 64.00000
44 30.00000 15.00000
45 39.00000 10.00000
46 32.00000 39.00000
47 25.00000 32.00000
48 25.00000 55.00000
49 48.00000 28.00000
50 56.00000 37.00000
51 20.00000 20.00000
DEMAND_SECTION
1 0
2 30
3 16
4 9
5 21
6 15
7 19
8 23
9 11
10 5
11 19
12 29
13 23
14 21
15 10
16 15
17 3
18 41
19 9
20 28
21 8
22 8
23 16
24 10
25 28
26 7
27 15
28 14
29 6
30 19
31 11
32 12
33 23
34 26
35 17
36 6
37 9
38 15
39 14
40 7
41 27
42 13
43 11
44 16
45 10
46 5
47 25
48 17
49 18
50 10
51 12
SVC_TIME_SECTION
1 0
2 1
3 1
4 2
5 2
6 2
7 2
8 1
9 2
10 1
11 1
12 1
13 1
14 1
15 1
16 1
17 1
18 1
19 1
20 1
21 10
22 1
23 1
24 1
25 2
26 2
27 1
28 1
29 1
30 1
31 1
32 1
33 2
34 11
35 1
36 1
37 1
38 1
39 1
40 13
41 1
42 1
43 1
44 12
45 1
46 1
47 13
48 1
49 1
50 11
51 2
DEPOT_SECTION
1
-1
EOF